15
1 0 16
3 1 25
3 2 44
4 0 15
5 0 24
5 2 29
5 3 16
6 0 19
6 1 28
6 3 11
6 5 48
7 1 9
7 3 34
7 5 7
8 1 20
8 2 28
8 5 42
8 6 47
9 3 23
9 5 28
9 6 29
9 7 8
9 8 35
10 0 34
10 1 25
10 4 22
10 7 13
10 8 42
11 2 42
11 3 49
11 7 27
11 8 49
11 10 25
12 0 5
12 7 18
12 10 39
13 1 38
13 5 44
13 6 36
13 9 50
13 10 50
13 11 12
14 1 2
14 2 34
14 3 43
14 5 7
14 8 14
14 9 2
14 10 28
14 11 21
